NAME: rand_1/map6_480
TYPE: TSP
COMMENT: autogenerated using a wonderful map creator
DIMENSION: 600
EDGE_WEIGHT_TYPE: EUC_2D
NODE_COORD_SECTION
1 5.0 98.0
2 16.0 96.0
3 12.0 94.0
4 24.0 4.0
5 29.0 95.0
6 1.0 3.0
7 28.0 96.0
8 15.0 99.0
9 25.0 2.0
10 24.0 94.0
11 33.0 95.0
12 9.0 3.0
13 43.0 1.0
14 9.0 6.0
15 28.0 98.0
16 34.0 96.0
17 8.0 94.0
18 4.0 3.0
19 28.0 1.0
20 34.0 97.0
21 6.0 3.0
22 10.0 2.0
23 11.0 3.0
24 2.0 4.0
25 43.0 96.0
26 7.0 99.0
27 35.0 3.0
28 36.0 2.0
29 3.0 97.0
30 9.0 95.0
31 42.0 6.0
32 26.0 3.0
33 13.0 4.0
34 39.0 2.0
35 39.0 99.0
36 27.0 4.0
37 16.0 97.0
38 44.0 98.0
39 23.0 94.0
40 38.0 95.0
41 35.0 4.0
42 16.0 4.0
43 26.0 97.0
44 3.0 3.0
45 12.0 5.0
46 29.0 99.0
47 15.0 4.0
48 11.0 2.0
49 7.0 95.0
50 38.0 2.0
51 42.0 1.0
52 7.0 97.0
53 35.0 98.0
54 16.0 2.0
55 29.0 96.0
56 9.0 1.0
57 32.0 4.0
58 10.0 97.0
59 35.0 2.0
60 30.0 94.0
61 1.0 95.0
62 12.0 97.0
63 37.0 98.0
64 31.0 2.0
65 20.0 6.0
66 35.0 5.0
67 27.0 95.0
68 21.0 1.0
69 36.0 96.0
70 12.0 4.0
71 33.0 94.0
72 17.0 4.0
73 33.0 2.0
74 5.0 4.0
75 30.0 97.0
76 37.0 4.0
77 1.0 96.0
78 30.0 98.0
79 37.0 2.0
80 11.0 97.0
81 27.0 6.0
82 27.0 1.0
83 17.0 1.0
84 42.0 3.0
85 6.0 6.0
86 34.0 95.0
87 32.0 5.0
88 34.0 99.0
89 3.0 95.0
90 33.0 97.0
91 36.0 4.0
92 10.0 5.0
93 21.0 2.0
94 34.0 2.0
95 34.0 3.0
96 1.0 99.0
97 31.0 1.0
98 23.0 98.0
99 38.0 1.0
100 13.0 99.0
101 6.0 5.0
102 24.0 2.0
103 36.0 98.0
104 40.0 98.0
105 14.0 1.0
106 12.0 6.0
107 44.0 99.0
108 19.0 95.0
109 11.0 96.0
110 24.0 95.0
111 26.0 6.0
112 4.0 98.0
113 36.0 99.0
114 7.0 1.0
115 15.0 97.0
116 43.0 97.0
117 37.0 3.0
118 6.0 1.0
119 14.0 95.0
120 41.0 1.0
121 6.0 96.0
122 12.0 98.0
123 25.0 5.0
124 36.0 6.0
125 19.0 99.0
126 16.0 99.0
127 9.0 94.0
128 3.0 6.0
129 12.0 2.0
130 42.0 5.0
131 6.0 4.0
132 30.0 95.0
133 11.0 95.0
134 23.0 2.0
135 42.0 99.0
136 37.0 96.0
137 9.0 96.0
138 19.0 5.0
139 30.0 96.0
140 31.0 98.0
141 27.0 2.0
142 40.0 1.0
143 31.0 99.0
144 32.0 3.0
145 18.0 95.0
146 21.0 94.0
147 16.0 5.0
148 2.0 94.0
149 3.0 96.0
150 9.0 97.0
151 2.0 98.0
152 25.0 98.0
153 22.0 5.0
154 8.0 99.0
155 11.0 1.0
156 15.0 95.0
157 14.0 4.0
158 38.0 97.0
159 2.0 2.0
160 18.0 2.0
161 40.0 96.0
162 6.0 99.0
163 18.0 6.0
164 2.0 97.0
165 44.0 97.0
166 25.0 1.0
167 33.0 6.0
168 7.0 5.0
169 22.0 4.0
170 17.0 99.0
171 3.0 4.0
172 26.0 98.0
173 40.0 95.0
174 42.0 98.0
175 33.0 5.0
176 9.0 2.0
177 14.0 94.0
178 11.0 99.0
179 24.0 1.0
180 41.0 96.0
181 29.0 97.0
182 32.0 98.0
183 21.0 96.0
184 24.0 6.0
185 38.0 98.0
186 30.0 5.0
187 40.0 97.0
188 17.0 97.0
189 13.0 98.0
190 26.0 2.0
191 5.0 96.0
192 33.0 96.0
193 27.0 94.0
194 44.0 5.0
195 38.0 94.0
196 40.0 2.0
197 28.0 4.0
198 35.0 6.0
199 10.0 4.0
200 41.0 99.0
201 29.0 6.0
202 18.0 94.0
203 10.0 98.0
204 8.0 6.0
205 33.0 99.0
206 22.0 99.0
207 20.0 98.0
208 12.0 96.0
209 37.0 97.0
210 19.0 4.0
211 16.0 3.0
212 7.0 4.0
213 34.0 98.0
214 27.0 99.0
215 2.0 3.0
216 17.0 6.0
217 5.0 1.0
218 19.0 97.0
219 4.0 97.0
220 20.0 4.0
221 32.0 99.0
222 20.0 5.0
223 6.0 2.0
224 24.0 99.0
225 15.0 96.0
226 28.0 97.0
227 29.0 4.0
228 32.0 95.0
229 39.0 1.0
230 14.0 96.0
231 19.0 96.0
232 2.0 99.0
233 18.0 3.0
234 33.0 3.0
235 9.0 98.0
236 2.0 5.0
237 22.0 2.0
238 17.0 5.0
239 43.0 5.0
240 21.0 3.0
241 13.0 88.0
242 28.0 58.0
243 40.0 50.0
244 10.0 27.0
245 10.0 36.0
246 37.0 8.0
247 22.0 37.0
248 37.0 35.0
249 43.0 69.0
250 13.0 65.0
251 1.0 72.0
252 16.0 79.0
253 13.0 92.0
254 16.0 88.0
255 7.0 30.0
256 28.0 80.0
257 40.0 45.0
258 28.0 89.0
259 40.0 54.0
260 41.0 28.0
261 10.0 31.0
262 25.0 29.0
263 10.0 49.0
264 22.0 14.0
265 22.0 23.0
266 31.0 90.0
267 37.0 21.0
268 22.0 32.0
269 14.0 28.0
270 3.0 28.0
271 4.0 82.0
272 16.0 65.0
273 13.0 78.0
274 36.0 61.0
275 16.0 92.0
276 28.0 57.0
277 28.0 66.0
278 40.0 40.0
279 40.0 49.0
280 10.0 8.0
281 10.0 26.0
282 22.0 9.0
283 34.0 11.0
284 31.0 76.0
285 12.0 72.0
286 37.0 16.0
287 22.0 27.0
288 1.0 53.0
289 43.0 77.0
290 28.0 25.0
291 1.0 71.0
292 13.0 82.0
293 9.0 39.0
294 16.0 87.0
295 5.0 50.0
296 40.0 44.0
297 19.0 79.0
298 10.0 30.0
299 25.0 28.0
300 31.0 71.0
301 22.0 13.0
302 31.0 89.0
303 43.0 54.0
304 43.0 63.0
305 4.0 81.0
306 16.0 46.0
307 34.0 91.0
308 28.0 29.0
309 1.0 75.0
310 16.0 73.0
311 1.0 84.0
312 28.0 56.0
313 21.0 17.0
314 6.0 28.0
315 40.0 30.0
316 7.0 91.0
317 19.0 65.0
318 31.0 48.0
319 25.0 14.0
320 10.0 25.0
321 39.0 61.0
322 19.0 92.0
323 31.0 57.0
324 31.0 66.0
325 4.0 49.0
326 31.0 75.0
327 4.0 58.0
328 31.0 84.0
329 4.0 67.0
330 13.0 54.0
331 16.0 50.0
332 37.0 91.0
333 38.0 83.0
334 7.0 77.0
335 7.0 86.0
336 19.0 60.0
337 31.0 34.0
338 10.0 11.0
339 23.0 39.0
340 31.0 52.0
341 32.0 17.0
342 11.0 83.0
343 13.0 13.0
344 4.0 44.0
345 22.0 51.0
346 43.0 35.0
347 16.0 27.0
348 1.0 38.0
349 4.0 71.0
350 13.0 49.0
351 16.0 45.0
352 34.0 90.0
353 5.0 17.0
354 37.0 86.0
355 17.0 28.0
356 28.0 28.0
357 7.0 63.0
358 42.0 39.0
359 7.0 81.0
360 19.0 46.0
361 31.0 29.0
362 19.0 82.0
363 31.0 47.0
364 31.0 56.0
365 4.0 39.0
366 1.0 15.0
367 31.0 65.0
368 4.0 48.0
369 16.0 13.0
370 43.0 30.0
371 4.0 57.0
372 32.0 39.0
373 25.0 89.0
374 34.0 67.0
375 16.0 31.0
376 37.0 63.0
377 16.0 40.0
378 34.0 76.0
379 37.0 72.0
380 16.0 49.0
381 34.0 85.0
382 37.0 81.0
383 7.0 67.0
384 7.0 76.0
385 8.0 50.0
386 30.0 50.0
387 39.0 28.0
388 40.0 91.0
389 13.0 12.0
390 43.0 25.0
391 1.0 19.0
392 43.0 34.0
393 4.0 52.0
394 1.0 37.0
395 37.0 58.0
396 3.0 83.0
397 38.0 50.0
398 7.0 44.0
399 31.0 10.0
400 19.0 54.0
401 31.0 28.0
402 31.0 37.0
403 4.0 20.0
404 4.0 29.0
405 1.0 14.0
406 4.0 47.0
407 34.0 48.0
408 25.0 79.0
409 10.0 90.0
410 16.0 21.0
411 37.0 53.0
412 37.0 62.0
413 34.0 75.0
414 37.0 71.0
415 7.0 48.0
416 7.0 66.0
417 40.0 90.0
418 12.0 28.0
419 4.0 24.0
420 25.0 56.0
421 34.0 34.0
422 25.0 65.0
423 13.0 11.0
424 25.0 74.0
425 1.0 18.0
426 10.0 85.0
427 34.0 52.0
428 37.0 48.0
429 25.0 92.0
430 7.0 34.0
431 19.0 8.0
432 7.0 52.0
433 8.0 17.0
434 42.0 28.0
435 40.0 67.0
436 40.0 76.0
437 31.0 18.0
438 6.0 83.0
439 41.0 50.0
440 4.0 28.0
441 25.0 60.0
442 34.0 38.0
443 34.0 47.0
444 22.0 63.0
445 7.0 29.0
446 28.0 79.0
447 7.0 56.0
448 40.0 62.0
449 40.0 71.0
450 40.0 80.0
451 25.0 37.0
452 4.0 14.0
453 25.0 46.0
454 22.0 22.0
455 34.0 24.0
456 10.0 75.0
457 22.0 40.0
458 34.0 42.0
459 10.0 84.0
460 22.0 58.0
461 13.0 77.0
462 43.0 90.0
463 37.0 56.0
464 13.0 86.0
465 15.0 28.0
466 7.0 42.0
467 40.0 39.0
468 40.0 75.0
469 10.0 34.0
470 10.0 43.0
471 25.0 41.0
472 22.0 17.0
473 34.0 19.0
474 43.0 67.0
475 24.0 72.0
476 35.0 72.0
477 1.0 79.0
478 7.0 10.0
479 16.0 77.0
480 13.0 90.0
481 28.0 60.0
482 28.0 69.0
483 28.0 78.0
484 40.0 52.0
485 9.0 83.0
486 29.0 61.0
487 40.0 70.0
488 25.0 18.0
489 25.0 36.0
490 34.0 14.0
491 37.0 10.0
492 10.0 56.0
493 34.0 23.0
494 22.0 21.0
495 31.0 88.0
496 22.0 30.0
497 37.0 28.0
498 4.0 89.0
499 13.0 67.0
500 43.0 80.0
501 16.0 63.0
502 1.0 74.0
503 43.0 89.0
504 16.0 72.0
505 28.0 46.0
506 1.0 92.0
507 7.0 23.0
508 28.0 55.0
509 40.0 29.0
510 28.0 73.0
511 40.0 38.0
512 10.0 15.0
513 25.0 13.0
514 21.0 61.0
515 10.0 24.0
516 10.0 33.0
517 25.0 31.0
518 34.0 9.0
519 31.0 74.0
520 34.0 18.0
521 20.0 83.0
522 37.0 14.0
523 31.0 92.0
524 37.0 23.0
525 4.0 84.0
526 43.0 66.0
527 13.0 62.0
528 43.0 75.0
529 16.0 58.0
530 28.0 32.0
531 13.0 80.0
532 7.0 9.0
533 13.0 89.0
534 1.0 87.0
535 28.0 50.0
536 28.0 59.0
537 28.0 68.0
538 25.0 8.0
539 10.0 19.0
540 10.0 28.0
541 13.0 39.0
542 31.0 87.0
543 12.0 83.0
544 13.0 48.0
545 16.0 62.0
546 28.0 27.0
547 28.0 45.0
548 40.0 10.0
549 6.0 17.0
550 40.0 19.0
551 40.0 28.0
552 40.0 37.0
553 10.0 14.0
554 31.0 46.0
555 10.0 23.0
556 25.0 21.0
557 31.0 64.0
558 43.0 29.0
559 13.0 25.0
560 4.0 56.0
561 43.0 38.0
562 13.0 34.0
563 13.0 43.0
564 16.0 39.0
565 1.0 50.0
566 4.0 83.0
567 16.0 48.0
568 28.0 22.0
569 16.0 66.0
570 40.0 14.0
571 7.0 84.0
572 40.0 32.0
573 6.0 39.0
574 19.0 67.0
575 10.0 9.0
576 31.0 41.0
577 11.0 72.0
578 20.0 50.0
579 43.0 24.0
580 39.0 72.0
581 43.0 33.0
582 31.0 77.0
583 4.0 60.0
584 16.0 25.0
585 43.0 51.0
586 16.0 34.0
587 13.0 47.0
588 1.0 45.0
589 34.0 79.0
590 28.0 8.0
591 22.0 86.0
592 16.0 61.0
593 28.0 44.0
594 10.0 13.0
595 43.0 10.0
596 19.0 89.0
597 4.0 37.0
598 43.0 28.0
599 4.0 55.0
600 4.0 64.0
601 1.0 49.0
602 28.0 12.0
603 28.0 21.0
604 9.0 17.0
605 5.0 28.0
606 7.0 74.0
607 30.0 39.0
608 39.0 17.0
609 42.0 50.0
610 27.0 61.0
611 4.0 23.0
612 41.0 72.0
613 4.0 32.0
614 43.0 23.0
615 13.0 19.0
616 43.0 32.0
617 13.0 28.0
618 35.0 28.0
619 4.0 59.0
620 16.0 24.0
621 25.0 82.0
622 13.0 37.0
623 34.0 78.0
624 22.0 76.0
625 3.0 72.0
626 14.0 72.0
627 22.0 85.0
628 7.0 69.0
629 40.0 84.0
630 31.0 26.0
631 39.0 39.0
632 19.0 70.0
633 4.0 18.0
634 4.0 27.0
635 33.0 72.0
636 10.0 79.0
637 25.0 86.0
638 16.0 28.0
639 22.0 62.0
640 1.0 39.0
641 37.0 60.0
642 22.0 80.0
643 28.0 11.0
644 37.0 78.0
645 22.0 89.0
646 26.0 50.0
647 15.0 50.0
648 7.0 46.0
649 7.0 55.0
650 19.0 20.0
651 19.0 29.0
652 19.0 38.0
653 7.0 82.0
654 31.0 21.0
655 31.0 30.0
656 4.0 22.0
657 4.0 31.0
658 34.0 32.0
659 43.0 13.0
660 25.0 63.0
661 10.0 74.0
662 10.0 83.0
663 34.0 50.0
664 10.0 92.0
665 16.0 23.0
666 7.0 32.0
667 18.0 50.0
668 42.0 17.0
669 19.0 24.0
670 7.0 68.0
671 19.0 42.0
672 40.0 74.0
673 31.0 16.0
674 29.0 83.0
675 4.0 8.0
676 4.0 17.0
677 4.0 26.0
678 10.0 69.0
679 10.0 78.0
680 22.0 43.0
681 25.0 76.0
682 3.0 39.0
683 10.0 87.0
684 22.0 52.0
685 2.0 83.0
686 37.0 50.0
687 22.0 70.0
688 36.0 72.0
689 7.0 45.0
690 19.0 10.0
691 28.0 77.0
692 7.0 54.0
693 28.0 86.0
694 19.0 28.0
695 40.0 69.0
696 31.0 11.0
697 40.0 78.0
698 10.0 46.0
699 25.0 53.0
700 22.0 29.0
701 37.0 27.0
702 34.0 49.0
703 22.0 56.0
704 37.0 54.0
705 26.0 17.0
706 15.0 17.0
707 16.0 89.0
708 19.0 14.0
709 28.0 81.0
710 28.0 90.0
711 40.0 64.0
712 10.0 41.0
713 34.0 8.0
714 25.0 39.0
715 4.0 16.0
716 34.0 35.0
717 10.0 77.0
718 34.0 44.0
719 13.0 70.0
720 43.0 92.0
START_DEPOT_SECTION
1
2
3
4
5
6
7
8
9
10
11
12
13
14
15
16
17
18
19
20
21
22
23
24
25
26
27
28
29
30
31
32
33
34
35
36
37
38
39
40
41
42
43
44
45
46
47
48
49
50
51
52
53
54
55
56
57
58
59
60
61
62
63
64
65
66
67
68
69
70
71
72
73
74
75
76
77
78
79
80
81
82
83
84
85
86
87
88
89
90
91
92
93
94
95
96
97
98
99
100
101
102
103
104
105
106
107
108
109
110
111
112
113
114
115
116
117
118
119
120
-1
END_DEPOT_SECTION
121
122
123
124
125
126
127
128
129
130
131
132
133
134
135
136
137
138
139
140
141
142
143
144
145
146
147
148
149
150
151
152
153
154
155
156
157
158
159
160
161
162
163
164
165
166
167
168
169
170
171
172
173
174
175
176
177
178
179
180
181
182
183
184
185
186
187
188
189
190
191
192
193
194
195
196
197
198
199
200
201
202
203
204
205
206
207
208
209
210
211
212
213
214
215
216
217
218
219
220
221
222
223
224
225
226
227
228
229
230
231
232
233
234
235
236
237
238
239
240
-1
EOF
